50 8
229 552
776 206
814 835
374 97
420 287
127 697
217 512
197 231
402 276
190 226
343 597
573 577
770 341
124 168
434 719
458 603
802 554
467 791
931 792
777 604
461 816
417 768
319 441
499 623
190 613
197 414
300 569
747 189
712 601
652 858
372 410
825 719
558 483
520 480
208 595
698 287
489 461
249 436
155 228
240 376
625 315
147 631
366 648
422 597
407 748
571 453
484 872
128 152
439 808
260 242
